p cnf 21 11
a 1 2 0
e 3 4 0
a 5 6 0
e 7 8 9 10 0
a 11 12 0
e 13 0
a 14 15 0
e 16 17 0
a 18 19 20 0
e 21 0
-5 11 12 14 8 0
11 -3 21 -5 0
20 11 5 -10 0
-9 3 0
19 13 8 0
-15 12 -6 14 9 0
-17 -14 0
9 12 -20 0
-6 7 0
-17 -4 -12 3 -8 0
12 -16 0
